SDVRP instances/custom_instances/p10_20_splitx10_0.vrp
NAME:p10_20_splitx10_
BEST_KNOWN: 0
COMMENT: 0
DIMENSION: 940
CAPACITY: 2000
EDGE_WEIGHT_FORMAT: FUNCTION
EDGE_WEIGHT_TYPE: EXACT_2D
NODE_COORD_SECTION
1 0.00000 0.00000
2 -38 12
3 -38 12
4 -38 12
5 -38 12
6 -38 12
7 -38 12
8 30 11
9 30 11
10 30 11
11 -15 -2
12 -15 -2
13 -15 -2
14 -15 -2
15 -21 -35
16 -21 -35
17 -21 -35
18 -21 -35
19 5 8
20 5 8
21 4 -50
22 4 -50
23 4 -50
24 4 -50
25 4 -50
26 4 -50
27 4 -50
28 -40 -26
29 -40 -26
30 -40 -26
31 -40 -26
32 -40 -26
33 -40 -26
34 -40 -26
35 -2 14
36 -2 14
37 -2 14
38 -2 14
39 -2 14
40 16 -42
41 16 -42
42 16 -42
43 16 -42
44 16 -42
45 16 -42
46 4 -3
47 4 -3
48 4 -3
49 -23 -48
50 -23 -48
51 -23 -48
52 -23 -48
53 -23 -48
54 -23 -48
55 10 3
56 10 3
57 10 3
58 41 -31
59 41 -31
60 41 -31
61 41 -31
62 41 -31
63 18 -37
64 18 -37
65 18 -37
66 18 -37
67 18 -37
68 18 -37
69 -21 -27
70 -21 -27
71 -21 -27
72 -21 -27
73 -21 -27
74 -33 10
75 -33 10
76 -33 10
77 -33 10
78 -33 10
79 -49 -35
80 -49 -35
81 -49 -35
82 -49 -35
83 -49 -35
84 -49 -35
85 -49 -35
86 -49 -35
87 23 -41
88 23 -41
89 23 -41
90 23 -41
91 23 -41
92 23 -41
93 23 -41
94 41 29
95 41 29
96 41 29
97 30 -4
98 30 -4
99 30 -4
100 30 -4
101 30 -4
102 30 -4
103 30 -4
104 4 -13
105 4 -13
106 -49 -15
107 -49 -15
108 -49 -15
109 -49 -15
110 -49 -15
111 34 2
112 34 2
113 34 2
114 34 2
115 16 40
116 16 40
117 16 40
118 16 40
119 16 40
120 16 40
121 16 40
122 5 -46
123 5 -46
124 5 -46
125 5 -46
126 5 -46
127 5 -46
128 5 -46
129 -1 -4
130 -1 -4
131 -1 -4
132 -1 -4
133 -1 -4
134 -23 -16
135 -23 -16
136 -23 -16
137 -23 -16
138 -23 -16
139 -23 -16
140 3 -43
141 3 -43
142 3 -43
143 3 -43
144 -24 -23
145 -24 -23
146 -24 -23
147 -24 -23
148 -15 -40
149 -15 -40
150 -15 -40
151 1 40
152 1 40
153 1 40
154 1 40
155 1 40
156 1 40
157 43 -46
158 43 -46
159 43 -46
160 43 -46
161 43 -46
162 -3 44
163 -3 44
164 -3 44
165 -3 44
166 -3 44
167 24 34
168 24 34
169 24 34
170 24 34
171 24 34
172 24 34
173 32 -37
174 32 -37
175 32 -37
176 32 -37
177 32 -37
178 -34 -50
179 -34 -50
180 -34 -50
181 -14 50
182 -14 50
183 -14 50
184 -14 50
185 -16 48
186 -16 48
187 -16 48
188 -16 48
189 -6 16
190 -6 16
191 -6 16
192 -6 16
193 -6 16
194 -6 16
195 -48 49
196 -48 49
197 -48 49
198 -48 49
199 -48 49
200 -48 49
201 -48 49
202 17 43
203 17 43
204 17 43
205 17 43
206 50 -34
207 50 -34
208 50 -34
209 50 -34
210 50 -34
211 50 -34
212 50 -34
213 41 45
214 41 45
215 41 45
216 41 45
217 41 45
218 12 -11
219 12 -11
220 16 50
221 16 50
222 16 50
223 16 50
224 16 50
225 16 50
226 -38 -10
227 -38 -10
228 -38 -10
229 -38 -10
230 -38 -10
231 34 47
232 34 47
233 34 47
234 34 47
235 -11 2
236 -11 2
237 -11 2
238 -11 2
239 -11 2
240 -11 2
241 25 -29
242 25 -29
243 25 -29
244 25 -29
245 35 -34
246 35 -34
247 35 -34
248 45 11
249 45 11
250 45 11
251 45 11
252 -23 -12
253 -23 -12
254 -23 -12
255 -23 -12
256 -10 -13
257 -10 -13
258 -10 -13
259 -10 37
260 -10 37
261 -10 37
262 -10 37
263 -10 37
264 -10 37
265 20 -32
266 20 -32
267 20 -32
268 20 -32
269 -28 -15
270 -28 -15
271 -28 -15
272 33 -9
273 33 -9
274 33 -9
275 33 -9
276 33 -9
277 33 -9
278 -39 -8
279 -39 -8
280 46 -19
281 46 -19
282 46 -19
283 12 22
284 12 22
285 12 22
286 12 22
287 12 22
288 12 22
289 34 1
290 34 1
291 34 1
292 34 1
293 34 1
294 34 1
295 34 1
296 -2 -50
297 -2 -50
298 -2 -50
299 -2 -50
300 36 -29
301 36 -29
302 36 -29
303 36 -29
304 36 -29
305 36 -29
306 -36 -5
307 -36 -5
308 -36 -5
309 -36 -5
310 -36 -5
311 -36 -5
312 -38 5
313 -38 5
314 -38 5
315 -38 5
316 -38 5
317 -19 43
318 -19 43
319 -19 43
320 -19 43
321 -19 43
322 8 18
323 8 18
324 8 18
325 -33 14
326 -33 14
327 -33 14
328 -33 14
329 -33 14
330 -33 14
331 -33 14
332 -33 14
333 21 5
334 21 5
335 21 5
336 21 5
337 21 5
338 21 5
339 -27 -7
340 -27 -7
341 -49 4
342 -49 4
343 -49 4
344 -49 4
345 -49 4
346 -49 4
347 -49 4
348 -21 -48
349 -21 -48
350 -21 -48
351 7 -1
352 7 -1
353 7 -1
354 7 -1
355 7 -1
356 -45 8
357 -45 8
358 -45 8
359 -45 8
360 25 -41
361 25 -41
362 25 -41
363 25 -41
364 13 -20
365 13 -20
366 13 -20
367 13 -20
368 13 -20
369 -30 15
370 -30 15
371 -30 15
372 -30 15
373 -30 15
374 -7 -13
375 -7 -13
376 -7 -13
377 -7 -13
378 -32 36
379 -32 36
380 -32 36
381 29 -22
382 29 -22
383 -11 -18
384 -11 -18
385 -11 -18
386 -11 -18
387 -39 -44
388 -39 -44
389 -39 -44
390 -39 -44
391 -39 -44
392 5 47
393 5 47
394 5 47
395 5 47
396 5 47
397 26 8
398 26 8
399 26 8
400 26 8
401 26 8
402 29 36
403 29 36
404 29 36
405 -33 37
406 -33 37
407 -33 37
408 -1 29
409 -1 29
410 -1 29
411 -1 29
412 -1 29
413 -1 29
414 -1 29
415 -1 29
416 -5 -33
417 -5 -33
418 -5 -33
419 -5 -33
420 -5 -33
421 -5 -33
422 -5 -33
423 -50 -20
424 -50 -20
425 -50 -20
426 -50 -20
427 -50 -20
428 -50 -20
429 2 -49
430 2 -49
431 2 -49
432 39 -7
433 39 -7
434 39 -7
435 39 -7
436 -34 -17
437 -34 -17
438 -34 -17
439 0 -19
440 0 -19
441 0 -19
442 -41 25
443 -41 25
444 -41 25
445 -41 25
446 -41 25
447 -41 25
448 -41 25
449 -41 25
450 -24 35
451 -24 35
452 -24 35
453 -24 35
454 -24 35
455 -24 35
456 -24 35
457 -37 -23
458 -37 -23
459 -37 -23
460 -37 -23
461 19 -44
462 19 -44
463 19 -44
464 19 -44
465 19 -44
466 -27 -15
467 -27 -15
468 -27 -15
469 -27 -15
470 -12 -23
471 -12 -23
472 -12 -23
473 -43 23
474 -43 23
475 -43 23
476 -43 23
477 -43 23
478 -38 -13
479 -38 -13
480 -38 -13
481 -38 -13
482 33 26
483 33 26
484 33 26
485 33 26
486 33 26
487 33 26
488 33 26
489 14 -30
490 14 -30
491 14 -30
492 14 -30
493 14 -30
494 40 -39
495 40 -39
496 40 -39
497 40 -39
498 40 -39
499 23 35
500 23 35
501 23 35
502 23 35
503 23 35
504 23 35
505 23 35
506 -30 27
507 -30 27
508 -30 27
509 -30 27
510 -30 27
511 -30 27
512 -30 27
513 -10 -17
514 -10 -17
515 -10 -17
516 -1 40
517 -1 40
518 -1 40
519 -1 40
520 -1 40
521 -1 40
522 -1 40
523 -1 40
524 43 21
525 43 21
526 10 7
527 10 7
528 10 7
529 10 7
530 -28 24
531 -28 24
532 -28 24
533 -28 24
534 -28 24
535 -28 24
536 -37 33
537 -37 33
538 -37 33
539 -37 33
540 -37 33
541 -37 33
542 -6 -13
543 -6 -13
544 -22 -45
545 -22 -45
546 -22 -45
547 -22 -45
548 -22 -45
549 -22 -45
550 -40 -2
551 -40 -2
552 -40 -2
553 -28 11
554 -28 11
555 -28 11
556 11 -24
557 11 -24
558 11 -24
559 11 -24
560 11 -24
561 11 -24
562 11 -24
563 44 -41
564 44 -41
565 44 -41
566 44 -41
567 44 -41
568 44 -41
569 44 -41
570 5 -35
571 5 -35
572 5 -35
573 -9 -45
574 -9 -45
575 -9 -45
576 -9 -45
577 -9 -45
578 -9 -45
579 -17 -48
580 -17 -48
581 -17 -48
582 -17 -48
583 -17 -48
584 -21 -33
585 -21 -33
586 -21 -33
587 -21 -33
588 -21 -33
589 -21 -33
590 33 9
591 33 9
592 33 9
593 33 9
594 33 9
595 33 9
596 23 17
597 23 17
598 -30 -33
599 -30 -33
600 -30 -33
601 -30 -33
602 -30 -33
603 20 -8
604 20 -8
605 20 -8
606 20 -8
607 20 -8
608 20 -8
609 20 -8
610 19 -17
611 19 -17
612 19 -17
613 19 -17
614 19 -17
615 19 -17
616 19 -17
617 -7 -41
618 -7 -41
619 -7 -41
620 -7 -41
621 -7 -41
622 -7 -41
623 30 34
624 30 34
625 30 34
626 30 34
627 30 34
628 30 34
629 30 34
630 -36 0
631 -36 0
632 -36 0
633 -36 0
634 14 -18
635 50 -8
636 50 -8
637 -48 5
638 -48 5
639 -48 5
640 41 -7
641 41 -7
642 41 -7
643 41 -7
644 41 -7
645 41 -7
646 -35 -5
647 -35 -5
648 -35 -5
649 -35 -5
650 -35 -5
651 -7 -38
652 -7 -38
653 -7 -38
654 27 -30
655 27 -30
656 27 -30
657 27 -30
658 -41 -19
659 -41 -19
660 4 30
661 4 30
662 4 30
663 4 30
664 4 30
665 4 30
666 4 30
667 43 -42
668 43 -42
669 43 -42
670 43 -42
671 43 -42
672 43 -42
673 43 -42
674 18 32
675 18 32
676 18 32
677 18 32
678 -25 44
679 -25 44
680 -25 44
681 -25 44
682 -25 44
683 33 -46
684 33 -46
685 33 -46
686 33 -46
687 33 -46
688 25 -28
689 25 -28
690 25 -28
691 4 -36
692 4 -36
693 4 -36
694 4 -36
695 4 -36
696 -44 -32
697 -44 -32
698 11 -5
699 11 -5
700 11 -5
701 11 -5
702 11 -5
703 11 -5
704 -35 -1
705 -35 -1
706 -35 -1
707 -35 -1
708 -50 18
709 -50 18
710 -50 18
711 -50 18
712 -50 18
713 -19 13
714 -19 13
715 -19 13
716 16 30
717 16 30
718 16 30
719 16 30
720 16 30
721 16 30
722 16 30
723 21 9
724 21 9
725 21 9
726 21 9
727 32 6
728 32 6
729 32 6
730 32 6
731 -2 -39
732 -2 -39
733 -2 -39
734 -2 -39
735 -2 -39
736 -2 -39
737 -2 -39
738 -2 -39
739 41 -39
740 41 -39
741 41 -39
742 41 -39
743 41 -39
744 43 -36
745 43 -36
746 -31 -15
747 -31 -15
748 -31 -15
749 33 32
750 33 32
751 33 32
752 33 32
753 -38 43
754 -38 43
755 -38 43
756 -18 0
757 -18 0
758 -18 0
759 -18 0
760 23 -33
761 23 -33
762 23 -33
763 23 -33
764 49 -4
765 49 -4
766 49 -4
767 49 -4
768 49 -4
769 49 -4
770 -33 14
771 -33 14
772 -33 14
773 -33 14
774 -33 14
775 -33 14
776 -33 14
777 -33 14
778 -41 23
779 -41 23
780 -41 23
781 -41 23
782 -41 23
783 -32 7
784 -32 7
785 -32 7
786 -32 7
787 -32 7
788 -32 7
789 32 -29
790 32 -29
791 32 -29
792 32 -29
793 32 -29
794 -29 -27
795 -29 -27
796 -29 -27
797 -29 -27
798 -29 -27
799 15 42
800 15 42
801 15 42
802 15 42
803 -50 -12
804 -50 -12
805 -50 -12
806 -50 -12
807 -50 -12
808 -50 -12
809 8 -11
810 8 -11
811 8 -11
812 8 -11
813 8 -11
814 8 -11
815 8 -11
816 41 -17
817 41 -17
818 41 -17
819 41 -17
820 41 -17
821 41 -17
822 41 -17
823 2 40
824 2 40
825 2 40
826 2 40
827 2 40
828 -6 50
829 -6 50
830 -6 50
831 19 22
832 19 22
833 19 22
834 -15 16
835 -15 16
836 24 -20
837 24 -20
838 24 -20
839 24 -20
840 9 -8
841 9 -8
842 9 -8
843 -10 12
844 -10 12
845 -10 12
846 -10 12
847 -10 12
848 28 -33
849 28 -33
850 28 -33
851 28 -33
852 28 -33
853 -18 1
854 -18 1
855 -18 1
856 26 3
857 26 3
858 26 3
859 26 3
860 26 3
861 26 3
862 46 -21
863 46 -21
864 46 -21
865 46 -21
866 -25 12
867 -25 12
868 -25 12
869 -46 -15
870 -46 -15
871 -46 -15
872 47 48
873 47 48
874 -33 -23
875 -33 -23
876 -33 -23
877 -33 -23
878 27 -27
879 27 -27
880 27 -27
881 27 -27
882 27 -27
883 -42 16
884 -42 16
885 -42 16
886 -17 30
887 -17 30
888 -17 30
889 5 18
890 5 18
891 5 18
892 5 18
893 5 18
894 -2 -8
895 -2 -8
896 -2 -8
897 31 -22
898 31 -22
899 31 -22
900 31 -22
901 -6 -10
902 -6 -10
903 -6 -10
904 -6 -10
905 -6 -10
906 -6 -10
907 12 19
908 12 19
909 12 19
910 12 19
911 12 19
912 12 19
913 12 19
914 35 47
915 35 47
916 35 47
917 35 47
918 35 47
919 35 47
920 35 47
921 -39 -38
922 -39 -38
923 -39 -38
924 -39 -38
925 -39 -38
926 -39 -38
927 -29 22
928 -29 22
929 41 45
930 41 45
931 41 45
932 41 45
933 41 45
934 41 45
935 41 45
936 19 28
937 19 28
938 19 28
939 19 28
940 19 28
DEMAND_SECTION
1 0
2 400
3 100
4 20
5 20
6 20
7 20
8 400
9 400
10 200
11 400
12 200
13 100
14 20
15 400
16 200
17 100
18 20
19 200
20 100
21 400
22 200
23 20
24 20
25 20
26 20
27 10
28 400
29 400
30 100
31 20
32 20
33 20
34 20
35 400
36 20
37 20
38 20
39 20
40 400
41 400
42 20
43 20
44 20
45 20
46 400
47 20
48 20
49 200
50 20
51 20
52 20
53 20
54 10
55 400
56 400
57 20
58 200
59 20
60 20
61 20
62 20
63 400
64 400
65 20
66 20
67 20
68 10
69 200
70 20
71 20
72 20
73 10
74 400
75 100
76 20
77 20
78 20
79 400
80 400
81 100
82 20
83 20
84 20
85 20
86 10
87 400
88 200
89 20
90 20
91 20
92 20
93 10
94 400
95 20
96 10
97 400
98 200
99 100
100 20
101 20
102 20
103 10
104 400
105 20
106 400
107 400
108 100
109 20
110 20
111 400
112 100
113 20
114 20
115 200
116 100
117 20
118 20
119 20
120 20
121 10
122 400
123 400
124 100
125 20
126 20
127 20
128 20
129 400
130 20
131 20
132 20
133 20
134 200
135 100
136 20
137 20
138 20
139 10
140 400
141 100
142 20
143 10
144 400
145 400
146 20
147 10
148 400
149 200
150 20
151 400
152 400
153 100
154 20
155 20
156 20
157 400
158 400
159 20
160 20
161 20
162 200
163 100
164 20
165 20
166 10
167 200
168 100
169 20
170 20
171 20
172 20
173 400
174 200
175 20
176 20
177 20
178 200
179 100
180 10
181 200
182 20
183 20
184 20
185 200
186 100
187 20
188 20
189 200
190 20
191 20
192 20
193 20
194 10
195 400
196 200
197 100
198 20
199 20
200 20
201 20
202 400
203 200
204 100
205 10
206 400
207 400
208 100
209 20
210 20
211 20
212 20
213 200
214 100
215 20
216 20
217 10
218 400
219 200
220 400
221 20
222 20
223 20
224 20
225 10
226 400
227 20
228 20
229 20
230 10
231 400
232 20
233 20
234 10
235 400
236 400
237 20
238 20
239 20
240 20
241 400
242 400
243 100
244 20
245 200
246 100
247 20
248 200
249 20
250 20
251 10
252 200
253 100
254 20
255 20
256 400
257 400
258 10
259 200
260 100
261 20
262 20
263 20
264 20
265 400
266 400
267 20
268 10
269 400
270 400
271 200
272 400
273 100
274 20
275 20
276 20
277 20
278 400
279 20
280 400
281 400
282 100
283 400
284 400
285 100
286 20
287 20
288 20
289 400
290 400
291 100
292 20
293 20
294 20
295 10
296 400
297 400
298 100
299 20
300 400
301 100
302 20
303 20
304 20
305 20
306 400
307 20
308 20
309 20
310 20
311 10
312 400
313 200
314 100
315 20
316 10
317 200
318 100
319 20
320 20
321 10
322 200
323 100
324 20
325 400
326 200
327 100
328 20
329 20
330 20
331 20
332 10
333 200
334 100
335 20
336 20
337 20
338 10
339 400
340 400
341 400
342 400
343 100
344 20
345 20
346 20
347 20
348 400
349 20
350 10
351 400
352 400
353 100
354 20
355 20
356 400
357 200
358 20
359 10
360 200
361 20
362 20
363 20
364 400
365 400
366 100
367 20
368 10
369 400
370 400
371 100
372 20
373 10
374 400
375 400
376 20
377 10
378 400
379 200
380 20
381 400
382 100
383 400
384 200
385 20
386 20
387 400
388 200
389 100
390 20
391 20
392 400
393 200
394 20
395 20
396 10
397 400
398 20
399 20
400 20
401 20
402 400
403 400
404 10
405 200
406 100
407 10
408 400
409 400
410 100
411 20
412 20
413 20
414 20
415 10
416 200
417 100
418 20
419 20
420 20
421 20
422 10
423 400
424 200
425 100
426 20
427 20
428 20
429 400
430 400
431 100
432 400
433 200
434 100
435 10
436 400
437 400
438 100
439 400
440 400
441 200
442 400
443 400
444 100
445 20
446 20
447 20
448 20
449 10
450 400
451 200
452 20
453 20
454 20
455 20
456 10
457 400
458 400
459 100
460 10
461 400
462 200
463 20
464 20
465 20
466 400
467 200
468 100
469 10
470 400
471 200
472 20
473 400
474 200
475 20
476 20
477 20
478 400
479 200
480 20
481 10
482 400
483 100
484 20
485 20
486 20
487 20
488 10
489 200
490 100
491 20
492 20
493 20
494 200
495 100
496 20
497 20
498 10
499 400
500 200
501 20
502 20
503 20
504 20
505 10
506 400
507 400
508 100
509 20
510 20
511 20
512 20
513 400
514 400
515 10
516 400
517 200
518 100
519 20
520 20
521 20
522 20
523 10
524 200
525 100
526 400
527 400
528 100
529 20
530 400
531 200
532 100
533 20
534 20
535 20
536 400
537 400
538 100
539 20
540 20
541 10
542 400
543 100
544 400
545 200
546 100
547 20
548 20
549 10
550 400
551 200
552 100
553 200
554 100
555 20
556 200
557 100
558 20
559 20
560 20
561 20
562 10
563 400
564 200
565 100
566 20
567 20
568 20
569 10
570 400
571 400
572 200
573 200
574 100
575 20
576 20
577 20
578 10
579 400
580 200
581 100
582 20
583 20
584 400
585 200
586 100
587 20
588 20
589 10
590 400
591 400
592 100
593 20
594 20
595 10
596 400
597 400
598 400
599 200
600 100
601 20
602 20
603 400
604 200
605 20
606 20
607 20
608 20
609 10
610 400
611 200
612 100
613 20
614 20
615 20
616 10
617 400
618 100
619 20
620 20
621 20
622 20
623 200
624 100
625 20
626 20
627 20
628 20
629 10
630 400
631 100
632 20
633 20
634 400
635 400
636 20
637 400
638 200
639 10
640 400
641 400
642 20
643 20
644 20
645 20
646 400
647 200
648 100
649 20
650 10
651 400
652 20
653 10
654 400
655 20
656 20
657 10
658 400
659 20
660 400
661 400
662 100
663 20
664 20
665 20
666 10
667 400
668 400
669 20
670 20
671 20
672 20
673 10
674 400
675 400
676 100
677 20
678 200
679 100
680 20
681 20
682 20
683 400
684 20
685 20
686 20
687 10
688 400
689 400
690 200
691 200
692 20
693 20
694 20
695 20
696 200
697 100
698 400
699 400
700 20
701 20
702 20
703 20
704 400
705 200
706 100
707 10
708 400
709 100
710 20
711 20
712 10
713 200
714 100
715 20
716 400
717 200
718 100
719 20
720 20
721 20
722 10
723 200
724 20
725 20
726 20
727 200
728 20
729 20
730 20
731 400
732 200
733 100
734 20
735 20
736 20
737 20
738 10
739 400
740 400
741 20
742 20
743 10
744 400
745 400
746 400
747 400
748 10
749 400
750 400
751 20
752 20
753 400
754 400
755 100
756 400
757 20
758 20
759 10
760 400
761 100
762 20
763 20
764 200
765 100
766 20
767 20
768 20
769 20
770 400
771 400
772 100
773 20
774 20
775 20
776 20
777 10
778 400
779 20
780 20
781 20
782 10
783 200
784 100
785 20
786 20
787 20
788 20
789 400
790 100
791 20
792 20
793 10
794 400
795 200
796 20
797 20
798 10
799 200
800 100
801 20
802 20
803 400
804 200
805 20
806 20
807 20
808 20
809 400
810 400
811 20
812 20
813 20
814 20
815 10
816 200
817 100
818 20
819 20
820 20
821 20
822 10
823 200
824 20
825 20
826 20
827 20
828 400
829 400
830 10
831 400
832 400
833 20
834 200
835 100
836 200
837 100
838 20
839 20
840 200
841 100
842 10
843 400
844 20
845 20
846 20
847 20
848 400
849 200
850 20
851 20
852 10
853 400
854 20
855 10
856 200
857 20
858 20
859 20
860 20
861 10
862 400
863 400
864 100
865 10
866 400
867 400
868 20
869 400
870 20
871 20
872 400
873 100
874 400
875 200
876 100
877 10
878 400
879 400
880 20
881 20
882 20
883 400
884 400
885 200
886 400
887 200
888 10
889 200
890 100
891 20
892 20
893 10
894 200
895 100
896 10
897 200
898 100
899 20
900 10
901 400
902 200
903 100
904 20
905 20
906 20
907 400
908 200
909 100
910 20
911 20
912 20
913 10
914 400
915 200
916 20
917 20
918 20
919 20
920 10
921 400
922 200
923 20
924 20
925 20
926 20
927 400
928 10
929 400
930 400
931 100
932 20
933 20
934 20
935 10
936 400
937 100
938 20
939 20
940 20
DEPOT_SECTION
1
-1
EOF