SDVRP instances/custom_instances/p10_20_splitx10_0.sol
939 -4 882 883 884 708 709 711 710 707 355 -9 8 7 593 590 591 589 594 592 -13 12 758 756 757 755 854 852 865 866 712 714 -19 18 909 908 906 910 911 907 912 284 283 285 282 -38 515 518 517 516 151 152 154 155 150 153 826 824 825 823 822 -42 43 41 40 39 44 63 64 66 62 488 490 491 -45 47 46 353 352 354 351 350 -54 608 603 604 605 607 606 602 697 698 701 702 700 699 -55 56 722 725 723 724 398 400 397 399 396 595 596 -59 57 61 60 58 564 568 567 566 562 563 565 672 666 668 669 670 667 671 495 497 -69 72 71 70 68 584 583 587 588 585 586 14 15 17 16 471 470 375 -76 74 75 73 77 328 329 771 325 326 330 772 327 331 770 775 324 774 867 -101 100 99 97 102 98 96 431 432 434 273 276 272 271 274 275 -117 115 118 114 119 116 120 201 202 203 204 224 223 219 220 222 221 798 800 799 801 -126 124 125 122 127 121 123 139 416 418 469 894 -129 128 104 103 811 808 809 812 841 839 840 -132 131 130 895 893 376 374 373 255 256 905 902 -134 138 135 136 133 137 465 468 467 269 268 270 252 -140 142 141 430 429 428 21 25 26 24 20 23 22 693 691 694 690 692 -143 144 146 145 793 797 598 600 601 599 597 -149 147 148 577 573 575 574 572 576 618 619 617 621 620 616 652 650 651 -166 170 498 500 499 503 674 717 716 715 287 286 -172 174 493 496 494 739 741 742 740 738 246 245 244 879 880 -199 194 197 195 196 198 200 754 752 753 405 406 404 -218 217 633 365 364 366 363 367 814 810 813 -227 226 228 229 807 806 805 804 802 803 105 106 107 109 108 870 869 479 478 -233 232 231 230 918 919 917 913 914 916 915 749 751 748 750 -235 234 10 11 901 900 -238 239 236 237 784 782 5 2 1 3 6 473 475 476 472 474 778 777 779 781 780 -240 241 243 242 689 688 687 -254 251 253 437 435 436 746 747 745 -257 924 922 925 920 921 923 387 390 388 386 389 179 177 178 544 546 -258 260 259 262 263 261 181 180 183 182 186 185 187 184 317 318 319 320 316 678 680 677 679 681 887 886 846 843 -291 294 293 289 290 288 292 112 113 110 111 858 857 855 860 856 332 335 -301 299 300 788 847 849 848 656 655 653 654 -304 303 302 206 208 209 211 207 210 205 744 743 790 789 792 791 -336 334 337 333 859 727 729 726 728 248 249 250 247 524 523 95 94 93 481 482 487 485 483 484 486 -339 338 306 305 310 308 307 309 645 649 647 646 -340 342 345 343 346 341 344 638 637 636 358 357 356 786 783 785 787 -392 394 391 395 393 828 829 827 163 164 165 162 161 522 521 519 520 409 -410 413 412 414 411 407 408 660 659 665 664 661 663 662 892 891 890 -417 419 420 415 421 296 295 297 298 735 730 734 737 733 736 731 732 -433 641 642 643 640 644 639 765 766 768 763 764 767 634 635 815 -438 440 439 571 570 569 -444 442 446 447 445 441 448 443 535 536 537 538 540 539 510 508 -456 32 33 85 79 84 78 83 82 81 80 695 696 794 795 796 -457 459 658 657 426 427 423 425 422 424 868 -466 458 30 31 28 29 27 874 875 876 873 -480 477 225 278 277 549 550 551 648 -525 526 36 35 37 34 192 190 193 189 191 188 845 842 844 -528 527 872 871 213 215 214 216 212 934 933 928 930 932 931 929 -532 534 530 529 533 531 506 505 927 926 -541 542 514 513 512 382 383 384 385 904 903 -543 547 548 545 51 50 53 52 48 49 348 349 347 579 580 578 581 582 -553 554 552 769 773 776 369 370 368 371 372 833 834 -556 65 67 464 463 461 460 462 90 86 89 92 88 359 759 761 760 762 -559 557 558 87 91 362 361 360 685 686 684 683 682 159 156 160 157 158 173 176 175 850 851 -561 560 555 492 489 265 266 267 264 877 881 878 -612 615 613 614 611 609 610 835 838 836 837 381 380 897 896 898 899 -625 626 624 622 628 623 627 402 401 403 171 168 167 169 504 502 501 676 673 675 718 719 721 720 -706 703 705 704 629 631 632 630 312 311 314 313 315 853 -713 509 511 507 377 379 378 455 453 452 451 454 450 449 885 -816 819 820 821 818 817 280 279 281 862 863 864 861 -832 830 831 935 938 937 936 939 322 323 321 888 889 0 





OBJ=
5666.543
BEST_KNOWN=
0.000